NAME: random96
TYPE: TSP
DIMENSION: 96
EDGE_WEIGHT_TYPE: EXPLICIT
EDGE_WEIGHT_FORMAT: FULL_MATRIX
EDGE_WEIGHT_SECTION
0 127 127 127 127 127 127 127 127 127 127 127 127 127 8 127 127 127 127 127 127 127 127 127 127 127 5 127 127 127 127 127 8 127 127 127 127 127 127 14 127 127 127 127 127 127 6 127 127 127 127 127 127 127 127 127 127 127 127 127 127 127 127 127 127 13 127 127 127 127 127 127 127 127 127 127 12 127 127 127 127 127 127 127 127 127 127 127 127 127 127 127 127 127 127 127
127 0 127 127 127 127 127 127 127 9 127 127 127 127 127 127 127 127 127 127 127 127 127 127 127 127 127 10 127 127 127 127 127 127 127 127 127 127 127 127 127 127 127 127 127 127 127 8 127 127 127 14 127 127 127 127 127 127 127 127 127 127 12 127 127 127 127 127 127 127 127 127 127 127 127 127 127 127 127 127 17 127 127 127 127 127 127 127 127 127 127 127 127 127 127 127
127 127 0 127 127 127 127 127 127 127 127 127 127 127 127 127 127 127 20 127 127 127 127 127 127 127 127 127 127 127 127 15 127 127 127 127 127 127 127 127 127 127 127 127 127 127 127 127 127 127 127 127 127 127 127 127 127 13 127 127 127 127 127 127 127 127 127 127 127 127 127 127 127 127 127 127 127 127 127 127 127 127 127 127 127 127 127 127 127 127 127 127 127 6 127 127
127 127 127 0 127 127 127 127 17 127 127 127 127 127 127 127 127 127 127 127 11 127 127 127 127 127 127 127 127 127 127 127 127 127 127 127 127 127 127 127 127 127 127 127 127 127 127 127 127 127 127 127 127 127 127 127 127 127 127 127 127 127 127 127 127 127 9 127 127 127 127 127 127 127 127 127 127 127 127 127 127 127 127 127 127 127 127 14 127 5 127 127 127 127 127 127
127 127 127 127 0 127 127 127 127 127 127 127 26 127 127 127 127 127 127 127 127 127 127 127 127 127 127 127 127 127 127 127 127 127 127 127 127 127 53 127 127 127 127 127 127 127 127 127 127 127 127 127 127 127 127 127 127 3 127 127 127 127 127 127 127 127 127 127 127 127 127 127 127 127 127 127 127 127 6 127 127 127 127 127 127 127 127 127 127 127 127 127 127 127 127 127
127 127 127 127 127 0 127 127 127 127 127 127 127 127 127 127 127 127 127 127 127 3 127 127 127 127 127 127 3 127 127 127 127 127 127 127 127 127 127 127 127 127 127 127 127 7 127 127 127 127 127 127 8 127 127 127 127 127 127 127 10 127 127 127 127 127 127 127 127 127 127 127 127 2 127 127 127 127 127 127 127 127 127 127 127 127 127 127 127 127 127 127 127 127 127 127
127 127 127 127 127 127 0 127 127 127 127 127 127 127 127 127 127 127 127 14 127 127 127 127 127 127 127 127 127 127 127 13 127 127 127 127 127 127 127 127 127 127 127 127 127 127 127 127 127 127 127 127 14 127 127 127 12 127 127 127 12 127 127 15 127 127 127 127 127 127 127 127 127 127 16 127 127 127 127 127 127 127 127 127 127 127 127 127 127 127 127 127 127 127 127 127
127 127 127 127 127 127 127 0 127 127 127 127 127 127 127 127 127 127 127 127 127 127 127 127 127 127 127 127 127 9 127 127 127 7 127 127 127 127 127 127 127 127 13 127 6 127 127 127 127 127 127 127 127 127 127 127 127 127 12 127 127 9 127 127 127 127 127 127 127 127 127 127 127 127 127 127 127 127 127 127 127 127 127 127 127 127 127 127 127 127 127 127 5 127 127 127
127 127 127 17 127 127 127 127 0 127 127 127 127 127 127 127 22 127 127 127 27 127 127 127 127 127 127 127 127 127 127 127 127 127 127 127 127 127 127 127 127 127 25 127 127 127 127 127 127 127 127 127 127 127 127 127 127 127 127 127 127 127 127 127 127 127 127 127 127 26 127 127 127 127 127 127 127 127 127 127 127 127 127 127 127 127 127 20 127 127 127 127 127 127 127 127
127 9 127 127 127 127 127 127 127 0 14 127 127 127 127 127 127 127 127 127 127 127 127 127 127 127 127 127 127 127 127 127 127 127 127 127 127 127 127 127 127 127 127 127 127 127 127 127 127 127 127 127 127 127 127 127 127 127 127 127 127 127 13 127 127 127 127 127 127 127 127 127 127 127 127 14 127 127 127 127 12 127 127 127 127 14 127 127 127 127 127 127 127 127 127 127
127 127 127 127 127 127 127 127 127 14 0 127 127 127 127 127 127 127 127 127 127 127 127 127 127 127 127 127 127 127 127 127 127 127 127 127 127 127 127 127 127 127 127 127 127 127 127 127 127 127 127 127 127 127 127 127 127 127 127 127 127 127 8 127 127 127 127 127 127 127 127 127 127 127 127 6 127 127 127 127 127 127 127 127 127 127 127 127 127 127 127 127 127 127 5 127
127 127 127 127 127 127 127 127 127 127 127 0 127 127 127 127 127 127 127 127 127 127 11 127 127 127 127 127 127 127 127 127 127 127 127 21 127 127 127 127 127 127 127 127 127 127 127 127 127 127 127 127 127 127 127 127 127 127 127 127 127 127 127 127 15 127 127 127 127 127 127 127 127 127 127 127 127 127 127 127 127 19 127 127 127 1 20 127 127 127 127 15 127 127 127 127
127 127 127 127 26 127 127 127 127 127 127 127 0 127 127 127 127 127 127 127 127 127 127 127 127 127 127 127 127 127 127 127 127 127 127 127 127 127 79 127 127 127 127 13 127 127 127 127 127 127 4 127 127 127 127 127 127 25 127 127 127 127 127 127 127 127 127 127 127 127 127 127 127 127 127 127 127 127 127 127 127 127 127 127 127 127 127 127 127 127 127 127 127 11 127 127
127 127 127 127 127 127 127 127 127 127 127 127 127 0 127 127 127 127 127 127 127 127 127 127 127 127 127 127 127 127 127 127 127 127 127 127 127 127 127 18 127 127 127 127 127 127 127 127 127 127 127 127 127 127 127 127 127 127 127 127 127 127 127 127 6 127 127 127 127 127 127 127 127 127 127 9 127 127 127 127 127 15 127 127 127 127 127 127 127 127 127 127 127 127 8 16
8 127 127 127 127 127 127 127 127 127 127 127 127 127 0 127 127 127 127 127 35 127 127 127 127 127 127 127 127 127 127 127 1 127 127 127 127 127 127 127 25 127 127 127 127 127 127 127 127 127 127 127 127 127 127 127 127 127 127 127 127 127 127 127 127 19 127 127 127 127 127 127 127 127 127 127 127 127 127 127 127 127 127 127 127 127 127 127 127 127 127 127 127 127 127 127
127 127 127 127 127 127 127 127 127 127 127 127 127 127 127 0 127 127 127 127 127 127 127 127 127 127 127 127 127 127 127 127 127 127 127 19 127 127 127 127 127 127 127 127 127 127 127 127 8 127 127 127 127 127 127 127 127 127 127 127 127 127 127 127 127 127 127 127 127 127 127 127 13 127 10 127 127 127 127 127 127 127 127 127 127 127 9 127 127 127 127 127 127 127 127 127
127 127 127 127 127 127 127 127 22 127 127 127 127 127 127 127 0 127 127 127 127 127 127 127 127 127 127 127 127 127 127 127 127 127 127 127 127 127 127 127 127 127 18 127 127 11 127 127 127 127 127 127 127 127 127 127 20 127 127 127 127 127 127 127 127 127 127 127 127 127 127 127 18 127 22 127 127 127 127 127 127 127 127 127 127 127 127 7 127 127 127 127 127 127 127 127
127 127 127 127 127 127 127 127 127 127 127 127 127 127 127 127 127 0 127 127 127 127 10 127 127 17 127 127 127 127 127 127 127 127 127 127 127 127 127 127 127 127 127 127 127 127 127 127 127 127 127 127 127 127 127 127 127 127 127 127 127 127 127 127 127 127 127 127 127 127 127 127 127 127 127 127 127 19 127 7 12 127 127 127 10 127 127 127 127 127 127 15 127 127 127 127
127 127 20 127 127 127 127 127 127 127 127 127 127 127 127 127 127 127 0 127 127 127 127 127 127 127 127 127 127 127 127 20 127 127 127 127 127 3 127 127 127 127 127 127 127 127 127 127 127 127 127 127 127 127 127 127 127 127 127 127 127 127 127 17 127 127 127 127 127 127 127 127 127 127 127 127 127 127 127 127 127 127 127 127 127 127 127 127 8 127 9 127 127 20 127 127
127 127 127 127 127 127 14 127 127 127 127 127 127 127 127 127 127 127 127 0 127 127 127 127 127 127 127 127 127 127 127 19 127 8 127 127 127 127 127 127 127 127 127 127 127 127 127 127 127 127 127 127 9 7 127 127 127 18 127 127 127 127 127 127 127 127 127 127 127 127 127 127 127 127 127 127 127 127 14 127 127 127 127 127 127 127 127 127 127 127 127 127 127 127 127 127
127 127 127 11 127 127 127 127 27 127 127 127 127 127 35 127 127 127 127 127 0 127 127 127 127 127 127 127 127 127 127 127 127 127 127 127 127 127 127 127 11 127 127 127 127 127 127 127 127 8 127 127 127 127 127 127 127 127 127 127 127 127 127 127 127 127 3 127 127 53 127 127 127 127 127 127 127 127 127 127 127 127 127 127 127 127 127 127 127 127 127 127 127 127 127 127
127 127 127 127 127 3 127 127 127 127 127 127 127 127 127 127 127 127 127 127 127 0 127 127 127 127 127 127 3 4 127 127 127 127 127 127 127 127 127 127 127 127 127 127 127 127 127 127 127 127 127 127 6 127 127 127 127 127 5 127 127 127 127 127 127 127 127 127 127 127 127 127 127 2 127 127 127 127 127 127 127 127 127 127 127 127 127 127 127 127 127 127 127 127 127 127
127 127 127 127 127 127 127 127 127 127 127 11 127 127 127 127 127 10 127 127 127 127 0 127 127 127 127 127 127 127 127 127 127 127 127 127 127 127 127 127 127 127 127 127 127 127 127 127 127 127 127 127 127 127 127 127 127 127 127 127 127 127 127 127 127 127 127 127 127 127 127 127 127 127 127 127 127 127 127 127 5 127 127 127 127 11 127 127 127 127 127 12 127 127 127 127
127 127 127 127 127 127 127 127 127 127 127 127 127 127 127 127 127 127 127 127 127 127 127 0 12 127 127 127 127 127 127 127 127 127 127 127 127 127 127 127 127 127 127 127 127 127 127 127 127 127 127 127 127 127 14 127 127 127 127 127 127 127 127 127 127 127 127 10 127 127 127 127 127 127 127 127 127 39 127 127 127 127 127 6 25 127 127 127 127 127 6 127 127 127 127 127
127 127 127 127 127 127 127 127 127 127 127 127 127 127 127 127 127 127 127 127 127 127 127 12 0 127 127 127 127 127 127 127 127 127 127 127 127 127 127 127 127 127 127 127 127 127 127 127 127 127 127 127 127 127 127 127 127 127 127 127 127 127 127 127 127 127 127 2 127 127 127 127 127 127 127 127 127 127 127 16 127 127 15 127 15 127 127 127 127 127 127 127 127 127 127 127
127 127 127 127 127 127 127 127 127 127 127 127 127 127 127 127 127 17 127 127 127 127 127 127 127 0 127 127 127 127 127 127 127 127 127 127 127 127 127 127 127 127 127 127 127 127 127 127 127 127 127 6 127 127 127 127 127 127 127 127 127 127 127 127 127 127 127 127 127 127 127 127 127 127 127 127 127 8 127 127 17 127 127 127 127 127 127 127 127 127 127 127 127 127 127 127
5 127 127 127 127 127 127 127 127 127 127 127 127 127 127 127 127 127 127 127 127 127 127 127 127 127 0 127 127 127 127 127 127 127 4 127 127 127 127 127 127 127 127 127 127 127 5 127 127 127 127 127 127 127 127 127 127 127 127 127 127 127 127 127 127 127 127 127 127 127 127 127 127 127 127 127 8 127 127 127 127 127 127 127 127 127 127 127 127 127 127 127 127 127 127 127
127 10 127 127 127 127 127 127 127 127 127 127 127 127 127 127 127 127 127 127 127 127 127 127 127 127 127 0 127 127 127 127 66 127 127 127 127 127 127 127 127 127 127 127 127 127 127 3 127 127 127 18 127 127 127 127 127 127 127 127 127 127 13 127 127 127 127 127 127 127 127 127 127 127 127 127 127 31 127 127 127 127 127 127 127 127 127 127 127 127 127 127 127 127 127 127
127 127 127 127 127 3 127 127 127 127 127 127 127 127 127 127 127 127 127 127 127 3 127 127 127 127 127 127 0 127 127 127 127 127 127 127 127 127 127 127 127 127 6 127 127 9 127 127 127 127 127 127 127 127 127 127 127 127 3 127 127 127 127 127 127 127 127 127 127 127 127 127 127 2 127 127 127 127 127 127 127 127 127 127 127 127 127 127 127 127 127 127 127 127 127 127
127 127 127 127 127 127 127 9 127 127 127 127 127 127 127 127 127 127 127 127 127 4 127 127 127 127 127 127 127 0 127 127 127 5 127 127 127 127 127 127 127 127 127 127 127 127 127 127 127 127 127 127 5 127 127 127 127 127 7 127 127 127 127 127 127 127 127 127 127 127 127 127 127 127 127 127 127 127 127 127 127 127 127 127 127 127 127 127 127 127 127 127 127 127 127 127
127 127 127 127 127 127 127 127 127 127 127 127 127 127 127 127 127 127 127 127 127 127 127 127 127 127 127 127 127 127 0 127 127 127 14 127 127 127 127 127 127 127 127 127 127 127 127 127 127 127 127 127 127 127 127 10 127 127 127 127 127 127 127 127 127 127 127 127 7 127 4 127 13 127 127 127 127 127 127 127 127 127 127 127 127 127 127 127 127 127 127 127 127 127 127 127
127 127 15 127 127 127 13 127 127 127 127 127 127 127 127 127 127 127 20 19 127 127 127 127 127 127 127 127 127 127 127 0 127 127 127 127 127 127 127 127 127 127 127 127 127 127 127 127 127 127 127 127 127 127 127 127 127 19 127 127 127 127 127 8 127 127 127 127 127 127 127 127 127 127 127 127 127 127 127 127 127 127 127 127 127 127 127 127 127 127 127 127 127 127 127 127
8 127 127 127 127 127 127 127 127 127 127 127 127 127 1 127 127 127 127 127 127 127 127 127 127 127 127 66 127 127 127 127 0 127 127 127 127 127 127 18 127 127 127 127 127 127 127 127 127 127 127 127 127 127 127 127 127 127 127 127 127 127 54 127 127 127 127 127 127 127 127 127 127 127 127 127 127 127 127 127 127 127 127 127 127 127 127 127 127 127 127 127 127 127 42 127
127 127 127 127 127 127 127 7 127 127 127 127 127 127 127 127 127 127 127 8 127 127 127 127 127 127 127 127 127 5 127 127 127 0 127 127 127 127 127 127 127 127 127 127 127 127 127 127 127 127 127 127 6 6 127 127 127 127 127 127 127 7 127 127 127 127 127 127 127 127 127 127 127 127 127 127 127 127 127 127 127 127 127 127 127 127 127 127 127 127 127 127 127 127 127 127
127 127 127 127 127 127 127 127 127 127 127 127 127 127 127 127 127 127 127 127 127 127 127 127 127 127 4 127 127 127 14 127 127 127 0 127 127 127 127 127 127 127 127 127 127 127 3 127 127 127 127 127 127 127 127 16 127 127 127 127 127 127 127 127 127 127 127 127 14 127 127 127 127 127 127 127 10 127 127 127 127 127 127 127 127 127 127 127 127 127 127 127 127 127 127 127
127 127 127 127 127 127 127 127 127 127 127 21 127 127 127 19 127 127 127 127 127 127 127 127 127 127 127 127 127 127 127 127 127 127 127 0 127 127 127 127 127 127 127 127 127 127 127 127 127 127 127 127 127 127 127 127 127 127 127 4 127 127 127 127 127 127 127 127 7 127 10 127 17 127 127 127 127 127 127 127 127 6 127 127 127 127 21 127 127 127 127 127 127 127 127 5
127 127 127 127 127 127 127 127 127 127 127 127 127 127 127 127 127 127 127 127 127 127 127 127 127 127 127 127 127 127 127 127 127 127 127 127 0 127 127 127 3 127 127 127 127 127 127 127 127 6 127 127 127 127 127 10 127 127 127 127 127 127 127 127 127 4 127 127 127 127 127 127 127 127 127 127 5 127 127 127 127 127 127 127 127 127 127 127 127 127 127 127 127 127 127 127
127 127 127 127 127 127 127 127 127 127 127 127 127 127 127 127 127 127 3 127 127 127 127 127 127 127 127 127 127 127 127 127 127 127 127 127 127 0 127 127 127 127 127 127 127 127 127 127 127 127 127 127 127 127 127 127 127 127 127 127 127 127 127 15 127 127 127 12 127 127 127 127 127 127 127 127 127 127 127 127 127 127 13 127 127 127 127 127 127 127 10 127 127 127 127 127
127 127 127 127 53 127 127 127 127 127 127 127 79 127 127 127 127 127 127 127 127 127 127 127 127 127 127 127 127 127 127 127 127 127 127 127 127 127 0 127 127 127 127 127 23 127 127 127 127 127 127 127 127 127 127 127 127 127 127 127 127 127 127 127 127 127 127 127 127 12 127 127 127 127 127 127 127 127 46 127 127 127 127 127 127 127 127 127 127 127 127 127 28 127 127 127
14 127 127 127 127 127 127 127 127 127 127 127 127 18 127 127 127 127 127 127 127 127 127 127 127 127 127 127 127 127 127 127 18 127 127 127 127 127 127 0 127 127 127 127 127 127 10 127 127 127 127 127 127 127 127 127 127 127 127 16 127 127 127 127 127 127 127 127 15 127 127 127 127 127 127 127 127 127 127 127 127 127 127 127 127 127 127 127 127 127 127 127 127 127 26 15
127 127 127 127 127 127 127 127 127 127 127 127 127 127 25 127 127 127 127 127 11 127 127 127 127 127 127 127 127 127 127 127 127 127 127 127 3 127 127 127 0 127 127 127 127 127 127 127 127 5 127 127 127 127 127 127 127 127 127 127 127 127 127 127 127 6 127 127 127 127 127 127 127 127 127 127 127 127 127 127 127 127 127 127 127 127 127 127 127 127 127 127 127 127 127 127
127 127 127 127 127 127 127 127 127 127 127 127 127 127 127 127 127 127 127 127 127 127 127 127 127 127 127 127 127 127 127 127 127 127 127 127 127 127 127 127 127 0 127 127 127 127 127 127 12 127 127 127 127 127 127 127 127 127 127 127 127 127 127 23 127 127 127 127 127 127 127 127 127 127 127 127 127 127 127 15 127 127 15 127 127 127 12 127 127 127 127 5 127 127 127 127
127 127 127 127 127 127 127 13 25 127 127 127 127 127 127 127 18 127 127 127 127 127 127 127 127 127 127 127 6 127 127 127 127 127 127 127 127 127 127 127 127 127 0 127 16 14 127 127 127 127 127 127 127 127 127 127 127 127 3 127 127 127 127 127 127 127 127 127 127 25 127 127 127 127 127 127 127 127 127 127 127 127 127 127 127 127 127 127 127 127 127 127 127 127 127 127
127 127 127 127 127 127 127 127 127 127 127 127 13 127 127 127 127 127 127 127 127 127 127 127 127 127 127 127 127 127 127 127 127 127 127 127 127 127 127 127 127 127 127 0 127 127 127 127 127 127 10 127 127 127 13 127 127 127 127 127 127 127 127 127 127 127 127 127 127 127 127 15 127 127 127 127 127 127 127 127 127 127 127 127 127 127 127 127 127 127 127 127 127 127 127 127
127 127 127 127 127 127 127 6 127 127 127 127 127 127 127 127 127 127 127 127 127 127 127 127 127 127 127 127 127 127 127 127 127 127 127 127 127 127 23 127 127 127 16 127 0 127 127 127 127 127 127 127 127 127 127 127 127 127 127 127 127 127 127 127 127 127 127 127 127 25 127 127 127 127 127 127 127 127 127 127 127 127 127 127 127 127 127 127 127 127 127 127 5 127 127 127
127 127 127 127 127 7 127 127 127 127 127 127 127 127 127 127 11 127 127 127 127 127 127 127 127 127 127 127 9 127 127 127 127 127 127 127 127 127 127 127 127 127 14 127 127 0 127 127 127 127 127 127 127 127 127 127 12 127 127 127 7 127 127 127 127 127 127 127 127 127 127 127 127 127 127 127 127 127 127 127 127 127 127 127 127 127 127 127 127 127 127 127 127 127 127 127
6 127 127 127 127 127 127 127 127 127 127 127 127 127 127 127 127 127 127 127 127 127 127 127 127 127 5 127 127 127 127 127 127 127 3 127 127 127 127 10 127 127 127 127 127 127 0 127 127 127 127 127 127 127 127 127 127 127 127 127 127 127 127 127 127 127 127 127 15 127 127 127 127 127 127 127 127 127 127 127 127 127 127 127 127 127 127 127 127 127 127 127 127 127 127 127
127 8 127 127 127 127 127 127 127 127 127 127 127 127 127 127 127 127 127 127 127 127 127 127 127 127 127 3 127 127 127 127 127 127 127 127 127 127 127 127 127 127 127 127 127 127 127 0 127 127 127 127 127 127 127 127 127 127 127 127 127 127 10 127 127 127 127 127 127 127 127 127 127 127 127 127 127 127 127 127 127 127 127 127 127 127 127 127 127 127 127 127 127 127 127 127
127 127 127 127 127 127 127 127 127 127 127 127 127 127 127 8 127 127 127 127 127 127 127 127 127 127 127 127 127 127 127 127 127 127 127 127 127 127 127 127 127 12 127 127 127 127 127 127 0 127 127 127 127 127 127 127 127 127 127 127 127 127 127 26 127 127 127 127 127 127 127 127 127 127 12 127 127 127 127 127 127 127 127 127 127 127 2 127 127 127 127 127 127 127 127 127
127 127 127 127 127 127 127 127 127 127 127 127 127 127 127 127 127 127 127 127 8 127 127 127 127 127 127 127 127 127 127 127 127 127 127 127 6 127 127 127 5 127 127 127 127 127 127 127 127 0 127 127 127 127 127 10 127 127 127 127 127 127 127 127 127 127 8 127 127 127 127 127 127 127 127 127 127 127 127 127 127 127 127 127 127 127 127 127 127 13 127 127 127 127 127 127
127 127 127 127 127 127 127 127 127 127 127 127 4 127 127 127 127 127 127 127 127 127 127 127 127 127 127 127 127 127 127 127 127 127 127 127 127 127 127 127 127 127 127 10 127 127 127 127 127 127 0 127 127 127 127 127 127 127 127 127 127 127 127 127 127 127 127 127 127 127 127 20 127 127 127 127 127 127 127 127 127 127 127 127 127 127 127 127 127 127 127 127 127 12 127 127
127 14 127 127 127 127 127 127 127 127 127 127 127 127 127 127 127 127 127 127 127 127 127 127 127 6 127 18 127 127 127 127 127 127 127 127 127 127 127 127 127 127 127 127 127 127 127 127 127 127 127 0 127 127 127 127 127 127 127 127 127 127 127 127 127 127 127 127 127 127 127 127 127 127 127 127 127 13 127 127 19 127 127 127 127 127 127 127 127 127 127 127 127 127 127 127
127 127 127 127 127 8 14 127 127 127 127 127 127 127 127 127 127 127 127 9 127 6 127 127 127 127 127 127 127 5 127 127 127 6 127 127 127 127 127 127 127 127 127 127 127 127 127 127 127 127 127 127 0 127 127 127 127 127 127 127 12 127 127 127 127 127 127 127 127 127 127 127 127 127 127 127 127 127 127 127 127 127 127 127 127 127 127 127 127 127 127 127 127 127 127 127
127 127 127 127 127 127 127 127 127 127 127 127 127 127 127 127 127 127 127 7 127 127 127 127 127 127 127 127 127 127 127 127 127 6 127 127 127 127 127 127 127 127 127 127 127 127 127 127 127 127 127 127 127 0 127 127 127 127 127 127 127 2 127 127 127 127 127 127 127 127 127 127 127 127 127 127 127 127 14 127 127 127 127 127 127 127 127 127 127 127 127 127 127 127 127 127
127 127 127 127 127 127 127 127 127 127 127 127 127 127 127 127 127 127 127 127 127 127 127 14 127 127 127 127 127 127 127 127 127 127 127 127 127 127 127 127 127 127 127 13 127 127 127 127 127 127 127 127 127 127 0 127 127 127 127 127 127 127 127 127 127 127 127 127 127 127 127 6 127 127 127 127 127 53 127 127 127 127 127 11 127 127 127 127 127 127 127 127 127 127 127 127
127 127 127 127 127 127 127 127 127 127 127 127 127 127 127 127 127 127 127 127 127 127 127 127 127 127 127 127 127 127 10 127 127 127 16 127 10 127 127 127 127 127 127 127 127 127 127 127 127 10 127 127 127 127 127 0 127 127 127 127 127 127 127 127 127 127 127 127 127 127 127 127 17 127 127 127 12 127 127 127 127 127 127 127 127 127 127 20 127 13 127 127 127 127 127 127
127 127 127 127 127 127 12 127 127 127 127 127 127 127 127 127 20 127 127 127 127 127 127 127 127 127 127 127 127 127 127 127 127 127 127 127 127 127 127 127 127 127 127 127 127 12 127 127 127 127 127 127 127 127 127 127 0 127 127 127 6 127 127 127 127 127 127 127 127 127 127 127 127 127 6 127 127 127 127 127 127 127 127 127 127 127 127 127 127 127 127 127 127 127 127 127
127 127 13 127 3 127 127 127 127 127 127 127 25 127 127 127 127 127 127 18 127 127 127 127 127 127 127 127 127 127 127 19 127 127 127 127 127 127 127 127 127 127 127 127 127 127 127 127 127 127 127 127 127 127 127 127 127 0 127 127 127 127 127 127 127 127 127 127 127 127 127 127 127 127 127 127 127 127 8 127 127 127 127 127 127 127 127 127 127 127 127 127 127 17 127 127
127 127 127 127 127 127 127 12 127 127 127 127 127 127 127 127 127 127 127 127 127 5 127 127 127 127 127 127 3 7 127 127 127 127 127 127 127 127 127 127 127 127 3 127 127 127 127 127 127 127 127 127 127 127 127 127 127 127 0 127 127 127 127 127 127 127 127 127 127 127 127 127 127 127 127 127 127 127 127 127 127 127 127 127 127 127 127 127 127 127 127 127 127 127 127 127
127 127 127 127 127 127 127 127 127 127 127 127 127 127 127 127 127 127 127 127 127 127 127 127 127 127 127 127 127 127 127 127 127 127 127 4 127 127 127 16 127 127 127 127 127 127 127 127 127 127 127 127 127 127 127 127 127 127 127 0 127 127 127 127 127 127 127 127 4 127 127 127 127 127 127 127 127 127 127 127 127 127 127 127 127 127 127 127 127 127 127 127 127 127 127 4
127 127 127 127 127 10 12 127 127 127 127 127 127 127 127 127 127 127 127 127 127 127 127 127 127 127 127 127 127 127 127 127 127 127 127 127 127 127 127 127 127 127 127 127 127 7 127 127 127 127 127 127 12 127 127 127 6 127 127 127 0 127 127 127 127 127 127 127 127 127 127 127 127 127 127 127 127 127 127 127 127 127 127 127 127 127 127 127 127 127 127 127 127 127 127 127
127 127 127 127 127 127 127 9 127 127 127 127 127 127 127 127 127 127 127 127 127 127 127 127 127 127 127 127 127 127 127 127 127 7 127 127 127 127 127 127 127 127 127 127 127 127 127 127 127 127 127 127 127 2 127 127 127 127 127 127 127 0 127 127 127 127 127 127 127 127 127 127 127 127 127 127 127 127 14 127 127 127 127 127 127 127 127 127 127 127 127 127 7 127 127 127
127 12 127 127 127 127 127 127 127 13 8 127 127 127 127 127 127 127 127 127 127 127 127 127 127 127 127 13 127 127 127 127 54 127 127 127 127 127 127 127 127 127 127 127 127 127 127 10 127 127 127 127 127 127 127 127 127 127 127 127 127 127 0 127 127 127 127 127 127 127 127 127 127 127 127 127 127 127 127 127 127 127 127 127 127 127 127 127 127 127 127 127 127 127 13 127
127 127 127 127 127 127 15 127 127 127 127 127 127 127 127 127 127 127 17 127 127 127 127 127 127 127 127 127 127 127 127 8 127 127 127 127 127 15 127 127 127 23 127 127 127 127 127 127 26 127 127 127 127 127 127 127 127 127 127 127 127 127 127 0 127 127 127 127 127 127 127 127 127 127 24 127 127 127 127 127 127 127 13 127 127 127 127 127 127 127 127 127 127 127 127 127
127 127 127 127 127 127 127 127 127 127 127 15 127 6 127 127 127 127 127 127 127 127 127 127 127 127 127 127 127 127 127 127 127 127 127 127 127 127 127 127 127 127 127 127 127 127 127 127 127 127 127 127 127 127 127 127 127 127 127 127 127 127 127 127 0 127 127 127 127 127 127 127 127 127 127 8 127 127 127 127 127 12 127 127 127 14 127 127 127 127 127 127 127 127 127 127
13 127 127 127 127 127 127 127 127 127 127 127 127 127 19 127 127 127 127 127 127 127 127 127 127 127 127 127 127 127 127 127 127 127 127 127 4 127 127 127 6 127 127 127 127 127 127 127 127 127 127 127 127 127 127 127 127 127 127 127 127 127 127 127 127 0 127 127 127 127 127 127 127 127 127 127 1 127 127 127 127 127 127 127 127 127 127 127 127 127 127 127 127 127 127 127
127 127 127 9 127 127 127 127 127 127 127 127 127 127 127 127 127 127 127 127 3 127 127 127 127 127 127 127 127 127 127 127 127 127 127 127 127 127 127 127 127 127 127 127 127 127 127 127 127 8 127 127 127 127 127 127 127 127 127 127 127 127 127 127 127 127 0 127 127 127 127 127 127 127 127 127 127 127 127 127 127 127 127 127 127 127 127 127 127 9 127 127 127 127 127 127
127 127 127 127 127 127 127 127 127 127 127 127 127 127 127 127 127 127 127 127 127 127 127 10 2 127 127 127 127 127 127 127 127 127 127 127 127 12 127 127 127 127 127 127 127 127 127 127 127 127 127 127 127 127 127 127 127 127 127 127 127 127 127 127 127 127 127 0 127 127 127 127 127 127 127 127 127 127 127 127 127 127 15 127 127 127 127 127 127 127 9 127 127 127 127 127
127 127 127 127 127 127 127 127 127 127 127 127 127 127 127 127 127 127 127 127 127 127 127 127 127 127 127 127 127 127 7 127 127 127 14 7 127 127 127 15 127 127 127 127 127 127 15 127 127 127 127 127 127 127 127 127 127 127 127 4 127 127 127 127 127 127 127 127 0 127 7 127 127 127 127 127 127 127 127 127 127 127 127 127 127 127 127 127 127 127 127 127 127 127 127 127
127 127 127 127 127 127 127 127 26 127 127 127 127 127 127 127 127 127 127 127 53 127 127 127 127 127 127 127 127 127 127 127 127 127 127 127 127 127 12 127 127 127 25 127 25 127 127 127 127 127 127 127 127 127 127 127 127 127 127 127 127 127 127 127 127 127 127 127 127 0 127 127 127 127 127 127 127 127 127 127 127 127 127 127 127 127 127 127 127 127 127 127 127 127 127 127
127 127 127 127 127 127 127 127 127 127 127 127 127 127 127 127 127 127 127 127 127 127 127 127 127 127 127 127 127 127 4 127 127 127 127 10 127 127 127 127 127 127 127 127 127 127 127 127 127 127 127 127 127 127 127 127 127 127 127 127 127 127 127 127 127 127 127 127 7 127 0 127 10 127 127 127 127 127 127 127 127 127 127 127 127 127 127 127 127 127 127 127 127 127 127 127
127 127 127 127 127 127 127 127 127 127 127 127 127 127 127 127 127 127 127 127 127 127 127 127 127 127 127 127 127 127 127 127 127 127 127 127 127 127 127 127 127 127 127 15 127 127 127 127 127 127 20 127 127 127 6 127 127 127 127 127 127 127 127 127 127 127 127 127 127 127 127 0 127 127 127 127 127 127 127 127 127 127 127 8 127 127 127 127 3 127 127 127 127 20 127 127
127 127 127 127 127 127 127 127 127 127 127 127 127 127 127 13 18 127 127 127 127 127 127 127 127 127 127 127 127 127 13 127 127 127 127 17 127 127 127 127 127 127 127 127 127 127 127 127 127 127 127 127 127 127 127 17 127 127 127 127 127 127 127 127 127 127 127 127 127 127 10 127 0 127 18 127 127 127 127 127 127 127 127 127 127 127 127 17 127 127 127 127 127 127 127 127
127 127 127 127 127 2 127 127 127 127 127 127 127 127 127 127 127 127 127 127 127 2 127 127 127 127 127 127 2 127 127 127 127 127 127 127 127 127 127 127 127 127 127 127 127 127 127 127 127 127 127 127 127 127 127 127 127 127 127 127 127 127 127 127 127 127 127 127 127 127 127 127 127 0 127 127 127 127 127 127 127 127 127 127 127 127 127 127 127 127 127 127 127 127 127 127
127 127 127 127 127 127 16 127 127 127 127 127 127 127 127 10 22 127 127 127 127 127 127 127 127 127 127 127 127 127 127 127 127 127 127 127 127 127 127 127 127 127 127 127 127 127 127 127 12 127 127 127 127 127 127 127 6 127 127 127 127 127 127 24 127 127 127 127 127 127 127 127 18 127 0 127 127 127 127 127 127 127 127 127 127 127 127 127 127 127 127 127 127 127 127 127
127 127 127 127 127 127 127 127 127 14 6 127 127 9 127 127 127 127 127 127 127 127 127 127 127 127 127 127 127 127 127 127 127 127 127 127 127 127 127 127 127 127 127 127 127 127 127 127 127 127 127 127 127 127 127 127 127 127 127 127 127 127 127 127 8 127 127 127 127 127 127 127 127 127 127 0 127 127 127 127 127 127 127 127 127 17 127 127 127 127 127 127 127 127 4 127
12 127 127 127 127 127 127 127 127 127 127 127 127 127 127 127 127 127 127 127 127 127 127 127 127 127 8 127 127 127 127 127 127 127 10 127 5 127 127 127 127 127 127 127 127 127 127 127 127 127 127 127 127 127 127 12 127 127 127 127 127 127 127 127 127 1 127 127 127 127 127 127 127 127 127 127 0 127 127 127 127 127 127 127 127 127 127 127 127 127 127 127 127 127 127 127
127 127 127 127 127 127 127 127 127 127 127 127 127 127 127 127 127 19 127 127 127 127 127 39 127 8 127 31 127 127 127 127 127 127 127 127 127 127 127 127 127 127 127 127 127 127 127 127 127 127 127 13 127 127 53 127 127 127 127 127 127 127 127 127 127 127 127 127 127 127 127 127 127 127 127 127 127 0 127 127 127 127 127 127 17 127 127 127 127 127 127 127 127 127 127 127
127 127 127 127 6 127 127 127 127 127 127 127 127 127 127 127 127 127 127 14 127 127 127 127 127 127 127 127 127 127 127 127 127 127 127 127 127 127 46 127 127 127 127 127 127 127 127 127 127 127 127 127 127 14 127 127 127 8 127 127 127 14 127 127 127 127 127 127 127 127 127 127 127 127 127 127 127 127 0 127 127 127 127 127 127 127 127 127 127 127 127 127 20 127 127 127
127 127 127 127 127 127 127 127 127 127 127 127 127 127 127 127 127 7 127 127 127 127 127 127 16 127 127 127 127 127 127 127 127 127 127 127 127 127 127 127 127 15 127 127 127 127 127 127 127 127 127 127 127 127 127 127 127 127 127 127 127 127 127 127 127 127 127 127 127 127 127 127 127 127 127 127 127 127 127 0 127 127 17 127 9 127 127 127 127 127 127 13 127 127 127 127
127 17 127 127 127 127 127 127 127 12 127 127 127 127 127 127 127 12 127 127 127 127 5 127 127 17 127 127 127 127 127 127 127 127 127 127 127 127 127 127 127 127 127 127 127 127 127 127 127 127 127 19 127 127 127 127 127 127 127 127 127 127 127 127 127 127 127 127 127 127 127 127 127 127 127 127 127 127 127 127 0 127 127 127 127 12 127 127 127 127 127 127 127 127 127 127
127 127 127 127 127 127 127 127 127 127 127 19 127 15 127 127 127 127 127 127 127 127 127 127 127 127 127 127 127 127 127 127 127 127 127 6 127 127 127 127 127 127 127 127 127 127 127 127 127 127 127 127 127 127 127 127 127 127 127 127 127 127 127 127 12 127 127 127 127 127 127 127 127 127 127 127 127 127 127 127 127 0 127 127 127 127 127 127 127 127 127 127 127 127 127 2
127 127 127 127 127 127 127 127 127 127 127 127 127 127 127 127 127 127 127 127 127 127 127 127 15 127 127 127 127 127 127 127 127 127 127 127 127 13 127 127 127 15 127 127 127 127 127 127 127 127 127 127 127 127 127 127 127 127 127 127 127 127 127 13 127 127 127 15 127 127 127 127 127 127 127 127 127 127 127 17 127 127 0 127 127 127 127 127 127 127 127 127 127 127 127 127
127 127 127 127 127 127 127 127 127 127 127 127 127 127 127 127 127 127 127 127 127 127 127 6 127 127 127 127 127 127 127 127 127 127 127 127 127 127 127 127 127 127 127 127 127 127 127 127 127 127 127 127 127 127 11 127 127 127 127 127 127 127 127 127 127 127 127 127 127 127 127 8 127 127 127 127 127 127 127 127 127 127 127 0 127 127 127 127 7 127 2 127 127 127 127 127
127 127 127 127 127 127 127 127 127 127 127 127 127 127 127 127 127 10 127 127 127 127 127 25 15 127 127 127 127 127 127 127 127 127 127 127 127 127 127 127 127 127 127 127 127 127 127 127 127 127 127 127 127 127 127 127 127 127 127 127 127 127 127 127 127 127 127 127 127 127 127 127 127 127 127 127 127 17 127 9 127 127 127 127 0 127 127 127 127 127 127 127 127 127 127 127
127 127 127 127 127 127 127 127 127 14 127 1 127 127 127 127 127 127 127 127 127 127 11 127 127 127 127 127 127 127 127 127 127 127 127 127 127 127 127 127 127 127 127 127 127 127 127 127 127 127 127 127 127 127 127 127 127 127 127 127 127 127 127 127 14 127 127 127 127 127 127 127 127 127 127 17 127 127 127 127 12 127 127 127 127 0 127 127 127 127 127 127 127 127 127 127
127 127 127 127 127 127 127 127 127 127 127 20 127 127 127 9 127 127 127 127 127 127 127 127 127 127 127 127 127 127 127 127 127 127 127 21 127 127 127 127 127 12 127 127 127 127 127 127 2 127 127 127 127 127 127 127 127 127 127 127 127 127 127 127 127 127 127 127 127 127 127 127 127 127 127 127 127 127 127 127 127 127 127 127 127 127 0 127 127 127 127 13 127 127 127 127
127 127 127 14 127 127 127 127 20 127 127 127 127 127 127 127 7 127 127 127 127 127 127 127 127 127 127 127 127 127 127 127 127 127 127 127 127 127 127 127 127 127 127 127 127 127 127 127 127 127 127 127 127 127 127 20 127 127 127 127 127 127 127 127 127 127 127 127 127 127 127 127 17 127 127 127 127 127 127 127 127 127 127 127 127 127 127 0 127 11 127 127 127 127 127 127
127 127 127 127 127 127 127 127 127 127 127 127 127 127 127 127 127 127 8 127 127 127 127 127 127 127 127 127 127 127 127 127 127 127 127 127 127 127 127 127 127 127 127 127 127 127 127 127 127 127 127 127 127 127 127 127 127 127 127 127 127 127 127 127 127 127 127 127 127 127 127 3 127 127 127 127 127 127 127 127 127 127 127 7 127 127 127 127 0 127 8 127 127 19 127 127
127 127 127 5 127 127 127 127 127 127 127 127 127 127 127 127 127 127 127 127 127 127 127 127 127 127 127 127 127 127 127 127 127 127 127 127 127 127 127 127 127 127 127 127 127 127 127 127 127 13 127 127 127 127 127 13 127 127 127 127 127 127 127 127 127 127 9 127 127 127 127 127 127 127 127 127 127 127 127 127 127 127 127 127 127 127 127 11 127 0 127 127 127 127 127 127
127 127 127 127 127 127 127 127 127 127 127 127 127 127 127 127 127 127 9 127 127 127 127 6 127 127 127 127 127 127 127 127 127 127 127 127 127 10 127 127 127 127 127 127 127 127 127 127 127 127 127 127 127 127 127 127 127 127 127 127 127 127 127 127 127 127 127 9 127 127 127 127 127 127 127 127 127 127 127 127 127 127 127 2 127 127 127 127 8 127 0 127 127 127 127 127
127 127 127 127 127 127 127 127 127 127 127 15 127 127 127 127 127 15 127 127 127 127 12 127 127 127 127 127 127 127 127 127 127 127 127 127 127 127 127 127 127 5 127 127 127 127 127 127 127 127 127 127 127 127 127 127 127 127 127 127 127 127 127 127 127 127 127 127 127 127 127 127 127 127 127 127 127 127 127 13 127 127 127 127 127 127 13 127 127 127 127 0 127 127 127 127
127 127 127 127 127 127 127 5 127 127 127 127 127 127 127 127 127 127 127 127 127 127 127 127 127 127 127 127 127 127 127 127 127 127 127 127 127 127 28 127 127 127 127 127 5 127 127 127 127 127 127 127 127 127 127 127 127 127 127 127 127 7 127 127 127 127 127 127 127 127 127 127 127 127 127 127 127 127 20 127 127 127 127 127 127 127 127 127 127 127 127 127 0 127 127 127
127 127 6 127 127 127 127 127 127 127 127 127 11 127 127 127 127 127 20 127 127 127 127 127 127 127 127 127 127 127 127 127 127 127 127 127 127 127 127 127 127 127 127 127 127 127 127 127 127 127 12 127 127 127 127 127 127 17 127 127 127 127 127 127 127 127 127 127 127 127 127 20 127 127 127 127 127 127 127 127 127 127 127 127 127 127 127 127 19 127 127 127 127 0 127 127
127 127 127 127 127 127 127 127 127 127 5 127 127 8 127 127 127 127 127 127 127 127 127 127 127 127 127 127 127 127 127 127 42 127 127 127 127 127 127 26 127 127 127 127 127 127 127 127 127 127 127 127 127 127 127 127 127 127 127 127 127 127 13 127 127 127 127 127 127 127 127 127 127 127 127 4 127 127 127 127 127 127 127 127 127 127 127 127 127 127 127 127 127 127 0 127
127 127 127 127 127 127 127 127 127 127 127 127 127 16 127 127 127 127 127 127 127 127 127 127 127 127 127 127 127 127 127 127 127 127 127 5 127 127 127 15 127 127 127 127 127 127 127 127 127 127 127 127 127 127 127 127 127 127 127 4 127 127 127 127 127 127 127 127 127 127 127 127 127 127 127 127 127 127 127 127 127 2 127 127 127 127 127 127 127 127 127 127 127 127 127 0
EOF
